c "792566.clq"
p edge 100 384
e 1 5
e 1 6
e 1 17
e 1 32
e 1 38
e 1 57
e 1 63
e 1 79
e 2 5
e 2 6
e 2 7
e 2 8
e 2 9
e 2 10
e 2 13
e 2 16
e 2 18
e 2 21
e 2 48
e 2 56
e 2 66
e 2 76
e 2 86
e 2 91
e 2 99
e 3 5
e 3 6
e 3 7
e 3 8
e 3 10
e 3 37
e 3 66
e 4 5
e 4 13
e 4 21
e 4 24
e 4 69
e 4 80
e 4 83
e 4 90
e 5 6
e 5 7
e 5 9
e 5 10
e 5 11
e 5 12
e 5 15
e 5 25
e 5 27
e 5 35
e 5 37
e 5 40
e 5 44
e 5 46
e 5 47
e 5 53
e 5 67
e 5 69
e 5 73
e 5 81
e 5 99
e 6 7
e 6 8
e 6 11
e 6 12
e 6 14
e 6 15
e 6 18
e 6 20
e 6 22
e 6 28
e 6 33
e 6 46
e 6 47
e 6 49
e 6 51
e 6 59
e 6 69
e 6 94
e 7 8
e 7 9
e 7 10
e 7 13
e 7 16
e 7 19
e 7 23
e 7 28
e 7 29
e 7 47
e 7 48
e 7 50
e 7 52
e 7 61
e 7 68
e 7 74
e 7 83
e 7 93
e 7 98
e 7 99
e 8 9
e 8 11
e 8 12
e 8 19
e 8 21
e 8 22
e 8 23
e 8 25
e 8 28
e 8 29
e 8 30
e 8 32
e 8 33
e 8 37
e 8 40
e 8 46
e 8 49
e 8 54
e 8 61
e 8 71
e 8 74
e 8 78
e 8 90
e 8 91
e 8 99
e 9 11
e 9 14
e 9 17
e 9 21
e 9 24
e 9 26
e 9 34
e 9 36
e 9 44
e 9 56
e 9 77
e 9 88
e 9 96
e 10 13
e 10 19
e 10 23
e 10 24
e 10 41
e 10 51
e 10 55
e 10 74
e 10 75
e 10 79
e 10 85
e 10 86
e 10 100
e 11 12
e 11 14
e 11 16
e 11 17
e 11 18
e 11 20
e 11 26
e 11 27
e 11 31
e 11 36
e 11 38
e 11 39
e 11 43
e 11 60
e 11 68
e 11 76
e 11 79
e 12 15
e 12 16
e 12 25
e 12 42
e 12 62
e 12 86
e 12 92
e 13 14
e 13 15
e 13 17
e 13 22
e 13 38
e 13 42
e 13 54
e 13 64
e 13 71
e 13 77
e 13 85
e 13 87
e 14 27
e 14 33
e 14 50
e 14 52
e 14 59
e 14 85
e 14 97
e 14 98
e 14 100
e 15 20
e 15 31
e 15 39
e 15 42
e 15 95
e 16 24
e 16 27
e 16 29
e 16 30
e 16 34
e 16 55
e 16 58
e 16 84
e 16 88
e 16 94
e 16 95
e 16 98
e 16 100
e 17 18
e 17 19
e 17 25
e 17 28
e 17 43
e 17 54
e 17 62
e 17 67
e 17 72
e 17 73
e 17 75
e 17 78
e 18 20
e 18 32
e 18 33
e 18 48
e 18 66
e 18 70
e 18 72
e 18 86
e 18 98
e 19 22
e 19 31
e 19 34
e 19 53
e 19 61
e 19 85
e 19 94
e 19 96
e 20 23
e 20 30
e 20 32
e 20 40
e 20 45
e 20 76
e 20 78
e 20 83
e 21 35
e 21 36
e 21 39
e 21 42
e 21 43
e 21 44
e 21 46
e 21 52
e 21 58
e 21 59
e 21 60
e 21 65
e 21 70
e 21 89
e 21 100
e 22 50
e 23 26
e 23 39
e 23 41
e 23 67
e 23 87
e 23 91
e 23 92
e 24 31
e 24 47
e 24 84
e 25 26
e 25 49
e 25 78
e 25 95
e 26 35
e 27 35
e 27 53
e 27 61
e 27 76
e 28 29
e 28 30
e 28 34
e 28 36
e 28 40
e 28 41
e 28 49
e 28 65
e 28 82
e 28 90
e 30 37
e 30 74
e 31 48
e 31 56
e 32 50
e 32 81
e 32 83
e 33 38
e 33 44
e 33 59
e 33 70
e 34 62
e 34 65
e 34 96
e 34 97
e 35 55
e 36 69
e 38 41
e 38 63
e 38 64
e 38 71
e 39 45
e 39 51
e 40 52
e 40 72
e 41 43
e 41 45
e 41 51
e 41 88
e 42 54
e 42 67
e 42 72
e 42 80
e 42 89
e 43 57
e 43 58
e 43 62
e 43 64
e 44 45
e 44 53
e 44 60
e 47 82
e 48 58
e 48 68
e 48 84
e 49 55
e 49 57
e 49 64
e 49 65
e 49 73
e 49 75
e 49 79
e 53 63
e 53 66
e 53 70
e 53 84
e 54 56
e 54 57
e 54 71
e 54 82
e 55 60
e 55 68
e 55 97
e 56 88
e 58 81
e 58 92
e 59 93
e 60 89
e 62 63
e 62 96
e 63 77
e 63 91
e 64 77
e 65 73
e 65 92
e 66 75
e 68 97
e 69 95
e 70 82
e 70 90
e 71 81
e 73 80
e 74 80
e 75 89
e 75 93
e 80 87
e 80 94
e 82 87
e 89 93
